; benchmark generated from python API
(set-info :status unknown)
(declare-datatypes ((IntState 0)) (((Mk1 (val1 Int)) (Mk2 (val2 Int)))))
 (declare-fun c_main_~i~6 () Int)
(declare-fun c_main_~j~6 () Int)
(declare-fun c_main_~k~6 () Int)
(assert
 (let (($x7 (<= 1 c_main_~i~6)))
 (let (($x139 (<= 0 c_main_~i~6)))
 (let (($x58 (exists ((v_nnf_54_st IntState) (val!34 Int) )(let (($x5 (and (<= c_main_~k~6 (+ (val2 v_nnf_54_st) 1)) (<= 3 (val2 v_nnf_54_st)) (<= (+ (* 2 (val2 v_nnf_54_st)) 2) c_main_~j~6))))
 (let (($x52 (not (= v_nnf_54_st (Mk1 val!34)))))
 (and $x52 $x5))))
 ))
 (let ((?x42 (* 2 c_main_~i~6)))
 (let (($x46 (<= ?x42 c_main_~j~6)))
 (let (($x124 (<= 2 c_main_~i~6)))
 (let (($x85 (<= (+ ?x42 1) c_main_~j~6)))
 (let (($x162 (<= 3 c_main_~i~6)))
 (let (($x103 (and (<= c_main_~k~6 c_main_~i~6) (<= (+ ?x42 2) c_main_~j~6) $x162)))
 (and $x103 (not (and $x162 $x85 $x124 $x46 $x58 $x139 $x7)))))))))))))
(check-sat)
